! Solving for graph /home/truongxuanhieu/CPLEX-MIP-for-MinSpanLabeling/benchmarks/cabp/S-sherman4.mtx.rnd
! Target value is set to 258
! Lower bound is set to 259
! Upper bound is set to 546
! Time limit is set to 1800
! Vertices mode is set to Has hole
Version identifier: 22.2.0.0 | 2026-05-04 | 5dff98e58
CPXPARAM_TimeLimit                               1800
Tried aggregator 2 times.
MIP Presolve eliminated 1344 rows and 6459 columns.
MIP Presolve modified 545 coefficients.
Aggregator did 6999 substitutions.
Reduced MIP has 9682 rows, 8342 columns, and 24475 nonzeros.
Reduced MIP has 1886 binaries, 3229 generals, 0 SOSs, and 5909 indicators.
Presolve time = 0.06 sec. (109.28 ticks)
Probing fixed 0 vars, tightened 8043 bounds.
Probing time = 0.04 sec. (20.88 ticks)
Tried aggregator 1 time.
Detecting symmetries...
MIP Presolve modified 4014 coefficients.
Reduced MIP has 9682 rows, 8342 columns, and 24475 nonzeros.
Reduced MIP has 1886 binaries, 6456 generals, 0 SOSs, and 5909 indicators.
Presolve time = 0.03 sec. (24.52 ticks)
Probing time = 0.03 sec. (4.53 ticks)
Clique table members: 4044.
MIP emphasis: balance optimality and feasibility.
MIP search method: dynamic search.
Parallel mode: deterministic, using up to 8 threads.
Root relaxation solution time = 0.34 sec. (85.77 ticks)

        Nodes                                         Cuts/
   Node  Left     Objective  IInf  Best Integer    Best Bound    ItCnt     Gap

      0     0      516.0000  1360                    516.0000        0         
      0     0      516.0000  1360                  Cuts: 2520     1551         
      0     0      516.0000   701                  Cuts: 2520     3830         
      0     0      516.0000   774                  Cuts: 2520     5043         
*     0+    0                          546.0000      516.0000             5.49%
Detecting symmetries...
      0     2      516.0000   475      546.0000      516.0000     5043    5.49%
Elapsed time = 2.60 sec. (2178.41 ticks, tree = 0.02 MB, solutions = 1)
     30    29      517.0000   688      546.0000      516.0000     6141    5.49%
    190   137      517.0000   482      546.0000      516.0000    17429    5.49%
    359   293      538.0000   305      546.0000      516.0000    21034    5.49%
    544   446      517.0000   401      546.0000      516.0000    26406    5.49%
    772   685      517.0000   331      546.0000      516.0000    36540    5.49%
*  1025   911      integral     0      538.0000      516.0000    42149    4.09%
   1038   837      518.0000    34      538.0000      516.0000    39869    4.09%
*  1158   871      integral     0      518.0000      516.0000    44819    0.39%
*  1239   838      integral     0      517.0000      516.0000    47641    0.19%
   1261   872      517.0000  1427      517.0000      516.0000    49385    0.19%
   1379    35      516.0000  2392      517.0000      516.0000    57701    0.19%
   1397     4      516.0000     2      517.0000      516.0000    66992    0.19%
*  1398     3      integral     0      516.0000      516.0000    67739    0.00%

Cover cuts applied:  296
Implied bound cuts applied:  2834

Root node processing (before b&c):
  Real time             =    2.57 sec. (2157.50 ticks)
Parallel b&c, 8 threads:
  Real time             =    2.46 sec. (2292.31 ticks)
  Sync time (average)   =    0.77 sec.
  Wait time (average)   =    0.00 sec.
                          ------------
Total (root+branch&cut) =    5.03 sec. (4449.80 ticks)
! --------------------------------------------------------
! Solve = 1
! Status = Optimal
! Cplex status = Optimal
! Obj = 516
! BestBound = 516
! --------------------------------------------------------
! --------------------------------------------------------
! Best span = 516
! Labeling: 258 258 516 516 516 258 258 258 258 258 516 258 258 516 258 258 258 516 516 516 258 516 516 258 516 516 258 258 258 516 516 516 516 516 258 258 516 258 516 258 258 516 258 516 516 516 516 516 516 516 516 516 258 258 516 258 258 516 516 516 516 516 516 516 516 258 516 258 516 258 516 258 258 258 258 258 258 516 258 258 516 516 258 516 258 258 516 258 258 258 258 258 516 516 258 516 258 516 516 516 516 258 258 516 516 516 516 258 516 258 516 258 258 258 258 516 516 516 516 516 258 516 516 516 516 516 516 258 516 516 258 516 516 516 516 258 258 516 258 516 516 516 258 258 258 258 258 258 516 258 258 516 258 258 516 516 516 516 258 258 258 258 516 258 516 516 258 516 258 258 258 258 516 516 258 516 516 516 258 258 258 258 258 258 258 516 516 516 516 258 258 516 258 516 516 516 258 258 258 516 258 258 258 516 516 516 258 258 516 258 258 516 258 516 258 258 516 258 516 516 516 516 258 258 258 516 258 516 516 258 516 258 258 516 516 516 516 258 258 258 516 516 258 258 516 516 516 516 258 258 258 258 516 516 516 516 258 516 516 258 258 516 258 258 516 516 516 516 516 516 258 516 516 258 258 258 516 258 516 516 516 258 516 258 516 516 258 516 516 258 258 516 516 516 516 516 258 258 516 516 258 258 258 258 258 516 258 258 258 258 516 516 258 516 258 516 258 258 516 258 516 516 258 258 516 258 258 516 516 258 258 258 516 516 516 516 516 516 258 258 516 516 258 516 516 258 516 258 516 258 258 258 516 258 516 258 258 258 258 258 258 258 258 516 258 516 516 516 516 258 516 258 258 258 258 516 258 258 516 258 258 258 516 516 516 258 516 258 258 258 258 516 258 516 516 516 258 258 258 516 516 516 258 258 516 258 516 258 258 516 258 516 516 516 516 258 258 258 516 258 258 258 258 516 516 516 258 258 258 258 516 258 258 516 516 516 516 258 516 516 258 258 516 258 258 258 516 258 258 516 258 516 516 516 516 258 258 258 258 258 516 516 258 258 516 258 516 516 516 516 258 516 516 258 258 516 258 516 258 516 516 258 258 516 258 258 258 258 516 258 258 258 258 516 258 516 258 516 258 258 516 258 516 516 516 516 516 516 258 516 516 516 516 516 516 516 258 516 258 516 258 258 258 516 258 258 516 516 516 258 516 258 258 516 516 258 258 258 516 258 258 258 258 258 516 516 
! --------------------------------------------------------
